NAME (null)
ROWS
 N  OBJ
 E  R0      
 E  R1      
 E  R2      
 E  R3      
 E  R4      
 E  R5      
 E  R6      
 E  R7      
 E  R8      
 E  R9      
 E  R10     
 E  R11     
 E  R12     
 E  R13     
 L  ccon_6_0
 L  ccon_6_1
 L  ccon_6_2
 L  ccon_6_3
 L  ccon_7_0
 L  ccon_7_1
 L  ccon_7_2
 L  ccon_7_3
 L  ccon_8_0
 L  ccon_8_1
 L  ccon_8_2
 L  ccon_8_3
 L  ccon_9_0
 L  ccon_9_1
 L  ccon_9_2
 L  ccon_9_3
 L  ccon_9_4
 L  ccon_9_5
 L  ccon_9_6
 L  ccon_10_0
 L  ccon_10_1
 L  ccon_10_2
 L  ccon_10_3
 L  ccon_10_4
 L  ccon_10_5
 L  ccon_10_6
 L  ccon_10_7
 L  ccon_10_8
 L  ccon_10_9
 L  ccon_11_0
 L  ccon_11_1
 L  ccon_11_2
 L  ccon_11_3
 L  ccon_11_4
 L  ccon_11_5
 L  ccon_11_6
 L  ccon_11_7
 L  ccon_11_8
 L  ccon_11_9
 L  ccon_11_10
 L  ccon_12_0
 L  ccon_12_1
 L  ccon_12_2
 L  ccon_12_3
 L  ccon_12_4
 L  ccon_12_5
 L  ccon_12_6
 L  ccon_12_7
 L  ccon_12_8
 L  ccon_13_0
 L  ccon_13_1
 L  ccon_13_2
 L  ccon_13_3
 L  ccon_13_4
 L  ccon_13_5
 L  ccon_13_6
 L  ccon_13_7
 L  ccon_13_8
 L  ccon_14_0
 L  ccon_14_1
COLUMNS
    j_0_0     R0        1
    j_0_1     R1        1
    j_0_2     R2        1
    j_0_3     R3        1
    j_0_4     R4        1
    j_0_5     R5        1
    j_0_6     R6        1
    j_1_0     OBJ       0
    j_1_1     OBJ       0
    j_1_2     OBJ       0
    j_1_3     OBJ       0
    j_1_4     OBJ       0
    j_1_5     OBJ       0
    j_1_6     OBJ       0
    j_2_0     OBJ       0
    j_2_1     OBJ       0
    j_2_2     OBJ       0
    j_2_3     OBJ       0
    j_2_4     OBJ       0
    j_2_5     OBJ       0
    j_2_6     OBJ       0
    j_3_0     OBJ       0
    j_3_1     OBJ       0
    j_3_2     OBJ       0
    j_3_3     OBJ       0
    j_3_4     OBJ       0
    j_3_5     OBJ       0
    j_3_6     OBJ       0
    j_4_0     OBJ       0
    j_4_1     OBJ       0
    j_4_2     OBJ       0
    j_4_3     OBJ       0
    j_4_4     OBJ       0
    j_4_5     OBJ       0
    j_4_6     OBJ       0
    j_5_0     OBJ       0
    j_5_1     OBJ       0
    j_5_2     OBJ       0
    j_5_3     OBJ       0
    j_5_4     OBJ       0
    j_5_5     OBJ       0
    j_5_6     OBJ       0
    j_6_0     ccon_6_0  4.1233947369430146e-01
    j_6_0     ccon_6_1  3.7354434072901466e-01
    j_6_0     ccon_6_2  3.5374409095921744e-01
    j_6_0     ccon_6_3  1.0432436503583169e-01
    j_6_1     ccon_6_0  1.9220572010775605e-01
    j_6_1     ccon_6_1  2.5424559214257914e-01
    j_6_1     ccon_6_2  2.6747693661083960e-01
    j_6_1     ccon_6_3  4.0807889511635781e-01
    j_6_2     ccon_6_0  -2.9978666761121903e-02
    j_6_2     ccon_6_1  -4.1573746298073033e-02
    j_6_2     ccon_6_2  -4.4165727856405518e-02
    j_6_2     ccon_6_3  -1.0946477983362163e-01
    j_6_3     ccon_6_1  -5.5669760199459498e-03
    j_6_3     ccon_6_2  -9.7800565204046279e-03
    j_6_3     ccon_6_3  1.7422352786262228e-02
    j_6_4     ccon_6_2  4.3921876093768238e-03
    j_6_4     ccon_6_3  -9.0926937368717223e-03
    j_6_5     OBJ       0
    j_6_6     OBJ       0
    j_7_0     ccon_7_0  4.2632150974655947e-01
    j_7_0     ccon_7_1  3.7818747844316564e-01
    j_7_0     ccon_7_2  3.1537691153916325e-01
    j_7_0     ccon_7_3  9.8409969781271381e-02
    j_7_1     ccon_7_0  1.6835983648211431e-01
    j_7_1     ccon_7_1  2.2586441053245787e-01
    j_7_1     ccon_7_2  2.1396841103138453e-01
    j_7_1     ccon_7_3  4.4800619272590625e-01
    j_7_2     ccon_7_0  -4.1331926515970764e-02
    j_7_2     ccon_7_1  -3.8004401459798220e-02
    j_7_2     ccon_7_2  -4.5916254410724257e-02
    j_7_2     ccon_7_3  -9.2225452353659657e-02
    j_7_3     ccon_7_1  -6.3443838121198344e-03
    j_7_3     ccon_7_2  -2.7754294553494305e-02
    j_7_3     ccon_7_3  6.8790596911653318e-02
    j_7_4     ccon_7_2  4.6253960423572708e-03
    j_7_4     ccon_7_3  9.0004309583329410e-03
    j_7_5     OBJ       0
    j_7_6     OBJ       0
    j_8_0     ccon_8_0  1.6719660059726277e-01
    j_8_0     ccon_8_1  2.3391965386901154e-06
    j_8_0     ccon_8_2  1.8270982508331012e-06
    j_8_0     ccon_8_3  5.2393464697050862e-07
    j_8_1     ccon_8_0  -3.7590003414838680e-01
    j_8_1     ccon_8_1  -3.6478274009058187e-01
    j_8_1     ccon_8_2  -3.5755421867317422e-01
    j_8_1     ccon_8_3  4.4273356783332524e-01
    j_8_2     ccon_8_0  -4.7008894372843515e-02
    j_8_2     ccon_8_1  2.3948299403969008e-03
    j_8_2     ccon_8_2  4.4262473211325225e-02
    j_8_2     ccon_8_3  -4.8483213474737712e-02
    j_8_3     ccon_8_1  -3.1386237791156027e-02
    j_8_3     ccon_8_2  -3.5030829084949644e-02
    j_8_3     ccon_8_3  1.1529935652838576e-01
    j_8_4     ccon_8_2  2.1165662819306624e-02
    j_8_4     ccon_8_3  7.1310583980248431e-03
    j_8_5     OBJ       0
    j_8_6     OBJ       0
    j_9_0     ccon_9_0  1.3198484948870023e-01
    j_9_0     ccon_9_1  1.9186058621301034e-06
    j_9_0     ccon_9_2  1.9581992049650363e-06
    j_9_0     ccon_9_3  5.0797959683012984e-08
    j_9_0     ccon_9_4  -4.7136817479460173e-07
    j_9_0     ccon_9_5  -3.1219173672916280e-07
    j_9_0     ccon_9_6  6.2686063664081221e-07
    j_9_1     ccon_9_0  -3.1935383655384175e-01
    j_9_1     ccon_9_1  -3.2720283046259729e-01
    j_9_1     ccon_9_2  -3.4432864661360851e-01
    j_9_1     ccon_9_3  4.2404603246959938e-01
    j_9_1     ccon_9_4  5.2672483667828518e-01
    j_9_1     ccon_9_5  6.1845916026623549e-01
    j_9_1     ccon_9_6  6.3566966908141187e-01
    j_9_2     ccon_9_0  -1.8859744503673739e-02
    j_9_2     ccon_9_1  2.2342644192542147e-02
    j_9_2     ccon_9_2  3.8684555145695534e-02
    j_9_2     ccon_9_3  -4.3507576144492840e-02
    j_9_2     ccon_9_4  -6.8033247815680348e-02
    j_9_2     ccon_9_5  -1.1751674628966864e-01
    j_9_2     ccon_9_6  -1.1277161338268402e-01
    j_9_3     ccon_9_1  -2.8115086022637167e-02
    j_9_3     ccon_9_2  -4.8590340797567341e-02
    j_9_3     ccon_9_3  1.2603143478160075e-01
    j_9_3     ccon_9_4  2.3037142166139349e-01
    j_9_3     ccon_9_5  3.3050270601555637e-01
    j_9_3     ccon_9_6  3.4577071674874543e-01
    j_9_4     ccon_9_2  2.2056769118992566e-02
    j_9_4     ccon_9_3  -3.0135224813005734e-03
    j_9_4     ccon_9_4  5.4520617534652340e-03
    j_9_4     ccon_9_5  -1.1167183573780930e-02
    j_9_4     ccon_9_6  -1.9802669934987486e-03
    j_9_5     ccon_9_4  -3.5652417726517306e-03
    j_9_5     ccon_9_5  -1.0768055689053421e-01
    j_9_5     ccon_9_6  -1.1511186638485925e-01
    j_9_6     ccon_9_5  3.0934931402869889e-02
    j_9_6     ccon_9_6  4.7634164058604614e-02
    j_10_0    ccon_10_0  5.0274256451260949e-02
    j_10_0    ccon_10_1  -2.0057398192535929e-08
    j_10_0    ccon_10_3  -3.0963564535108613e-06
    j_10_0    ccon_10_4  2.6606435469017756e-06
    j_10_0    ccon_10_6  1.9296545642692924e-05
    j_10_0    ccon_10_7  1.8329448400553255e-06
    j_10_0    ccon_10_8  2.8513987727233661e-07
    j_10_0    ccon_10_9  9.7509051228826920e-06
    j_10_1    ccon_10_0  -2.6910796302698270e-01
    j_10_1    ccon_10_1  -3.0871286909352685e-01
    j_10_1    ccon_10_2  -3.1391738999037189e-01
    j_10_1    ccon_10_3  5.2232432848993315e-01
    j_10_1    ccon_10_4  5.2538495988499112e-01
    j_10_1    ccon_10_5  6.2482461135117051e-01
    j_10_1    ccon_10_6  5.6569243041881589e-01
    j_10_1    ccon_10_7  6.4094653892098363e-01
    j_10_1    ccon_10_8  6.4063733286561653e-01
    j_10_1    ccon_10_9  6.6402120476910620e-01
    j_10_2    ccon_10_0  6.2862914081425289e-02
    j_10_2    ccon_10_1  1.4349711601094836e-02
    j_10_2    ccon_10_2  4.4011946857754284e-03
    j_10_2    ccon_10_3  -4.4573501455261968e-02
    j_10_2    ccon_10_4  -6.1187266614421108e-02
    j_10_2    ccon_10_5  -7.5990924476656271e-02
    j_10_2    ccon_10_6  -7.6442383349009088e-02
    j_10_2    ccon_10_7  -1.1725248138756456e-01
    j_10_2    ccon_10_8  -6.9685578680594995e-02
    j_10_2    ccon_10_9  -8.3161183395901561e-02
    j_10_3    ccon_10_1  -3.9594901813990779e-02
    j_10_3    ccon_10_2  -4.2356787121897346e-02
    j_10_3    ccon_10_3  2.5522824465330057e-01
    j_10_3    ccon_10_4  2.6209120177060158e-01
    j_10_3    ccon_10_5  3.6264224153291791e-01
    j_10_3    ccon_10_6  3.0500476274706650e-01
    j_10_3    ccon_10_7  3.8800763897807589e-01
    j_10_3    ccon_10_8  3.7661218594251150e-01
    j_10_3    ccon_10_9  4.0258815087235711e-01
    j_10_4    ccon_10_2  -4.2572443124178636e-03
    j_10_4    ccon_10_3  4.7783214796767882e-03
    j_10_4    ccon_10_4  -1.2912012467962681e-02
    j_10_4    ccon_10_5  -7.8429460653012747e-03
    j_10_4    ccon_10_6  -2.1069286981216052e-02
    j_10_4    ccon_10_7  -4.9949179030671309e-02
    j_10_4    ccon_10_8  2.5295002007629445e-03
    j_10_4    ccon_10_9  -7.3119441052368313e-03
    j_10_5    ccon_10_3  -5.8110573117519590e-03
    j_10_5    ccon_10_4  -2.1019298650904142e-02
    j_10_5    ccon_10_5  -1.0886159946617220e-01
    j_10_5    ccon_10_6  -6.3782245310844185e-02
    j_10_5    ccon_10_7  -1.5318220607228483e-01
    j_10_5    ccon_10_8  -1.1612733478945089e-01
    j_10_5    ccon_10_9  -1.4451666987345524e-01
    j_10_6    ccon_10_4  -9.4583271776254897e-03
    j_10_6    ccon_10_5  3.0583084300846844e-02
    j_10_6    ccon_10_6  -4.2889983499145856e-03
    j_10_6    ccon_10_7  -9.4188385820273800e-03
    j_10_6    ccon_10_8  4.7311279351156935e-02
    j_10_6    ccon_10_9  4.4776295703038704e-02
    j_11_0    ccon_11_0  2.0708743464089605e-02
    j_11_0    ccon_11_1  2.1034974890276297e-06
    j_11_0    ccon_11_2  1.0424118822521792e-06
    j_11_0    ccon_11_3  1.1408291162646384e-06
    j_11_0    ccon_11_4  3.7520909799208860e-07
    j_11_0    ccon_11_5  -2.3453114679673993e-06
    j_11_0    ccon_11_7  1.7532914329478710e-06
    j_11_0    ccon_11_8  -5.1122941804014445e-07
    j_11_0    ccon_11_9  7.7572636108588073e-07
    j_11_0    ccon_11_10  2.7324709131260288e-07
    j_11_1    ccon_11_0  -2.6916492882858678e-01
    j_11_1    ccon_11_1  -2.8594729029671584e-01
    j_11_1    ccon_11_2  -2.8807440321660871e-01
    j_11_1    ccon_11_3  -4.7580372834297219e-01
    j_11_1    ccon_11_4  5.1096213018172654e-01
    j_11_1    ccon_11_5  5.1810902562906958e-01
    j_11_1    ccon_11_6  6.2026642559194523e-01
    j_11_1    ccon_11_7  5.6215449071966050e-01
    j_11_1    ccon_11_8  6.4702725428276564e-01
    j_11_1    ccon_11_9  5.7284107352242375e-01
    j_11_1    ccon_11_10  6.6048719620369989e-01
    j_11_2    ccon_11_0  6.2059332808819673e-02
    j_11_2    ccon_11_1  7.5343146368638128e-03
    j_11_2    ccon_11_2  3.4723667492484321e-03
    j_11_2    ccon_11_3  3.9395014249425507e-02
    j_11_2    ccon_11_4  -2.2948570814771693e-02
    j_11_2    ccon_11_5  -3.6638547587323156e-02
    j_11_2    ccon_11_6  -3.8268294465179820e-02
    j_11_2    ccon_11_7  -4.5181571747837164e-02
    j_11_2    ccon_11_8  -7.1735861017344332e-02
    j_11_2    ccon_11_9  -2.3563249096134713e-02
    j_11_2    ccon_11_10  -4.0083206666251432e-02
    j_11_3    ccon_11_1  -5.0998082332836585e-02
    j_11_3    ccon_11_2  -5.2340064028451184e-02
    j_11_3    ccon_11_3  -2.4505354777235036e-01
    j_11_3    ccon_11_4  2.7677759311317846e-01
    j_11_3    ccon_11_5  2.8643833452261674e-01
    j_11_3    ccon_11_6  3.8792912483068148e-01
    j_11_3    ccon_11_7  3.3167244054755246e-01
    j_11_3    ccon_11_8  4.2074321884239857e-01
    j_11_3    ccon_11_9  3.3818195675562279e-01
    j_11_3    ccon_11_10  4.2810895597263449e-01
    j_11_4    ccon_11_2  -2.3243156107230776e-03
    j_11_4    ccon_11_3  2.2047689213326671e-02
    j_11_4    ccon_11_4  5.7650044338282526e-03
    j_11_4    ccon_11_5  -1.2380251574384689e-02
    j_11_4    ccon_11_6  -6.0735837434241352e-04
    j_11_4    ccon_11_7  -1.8255351522313133e-02
    j_11_4    ccon_11_8  -4.3684533783344387e-02
    j_11_4    ccon_11_9  1.3415702383809429e-02
    j_11_4    ccon_11_10  2.3881949837230724e-03
    j_11_5    ccon_11_4  -7.0428534464498163e-03
    j_11_5    ccon_11_5  -2.1983512179908501e-02
    j_11_5    ccon_11_6  -1.1012059088407336e-01
    j_11_5    ccon_11_7  -6.5049140850339429e-02
    j_11_5    ccon_11_8  -1.5456082428756138e-01
    j_11_5    ccon_11_9  -6.0188725436126099e-02
    j_11_5    ccon_11_10  -1.4557990743511531e-01
    j_11_6    ccon_11_5  -8.9024066663842966e-03
    j_11_6    ccon_11_6  3.1339713409374338e-02
    j_11_6    ccon_11_7  -3.6176038694683381e-03
    j_11_6    ccon_11_8  -8.9768766154794399e-03
    j_11_6    ccon_11_9  3.4129053855323575e-02
    j_11_6    ccon_11_10  4.5377181760852578e-02
    j_12_0    ccon_12_0  -1.0907582336510367e-02
    j_12_0    ccon_12_1  2.8335903939857639e-06
    j_12_0    ccon_12_2  -1.1426263915818388e-06
    j_12_0    ccon_12_3  -3.0182519535696005e-07
    j_12_0    ccon_12_4  2.0085208016373422e-06
    j_12_0    ccon_12_5  1.9212694304793270e-06
    j_12_0    ccon_12_6  7.8934383313468330e-07
    j_12_0    ccon_12_7  9.4926023517760039e-07
    j_12_0    ccon_12_8  3.9732499082451353e-07
    j_12_1    ccon_12_0  -2.7152858385093226e-01
    j_12_1    ccon_12_1  -4.6652882547751606e-01
    j_12_1    ccon_12_2  -4.8772955669169915e-01
    j_12_1    ccon_12_3  -5.0757764785379555e-01
    j_12_1    ccon_12_4  -5.8156847040712811e-01
    j_12_1    ccon_12_5  -5.3660635456570183e-01
    j_12_1    ccon_12_6  -6.2170273882458593e-01
    j_12_1    ccon_12_7  -5.5116956123049599e-01
    j_12_1    ccon_12_8  -6.4490291298491587e-01
    j_12_2    ccon_12_0  6.2707072568490868e-02
    j_12_2    ccon_12_1  2.4221134807661304e-02
    j_12_2    ccon_12_2  1.5151553926408183e-02
    j_12_2    ccon_12_3  8.9615508425714158e-03
    j_12_2    ccon_12_4  3.4484880260342077e-02
    j_12_2    ccon_12_5  3.4844976607241986e-02
    j_12_2    ccon_12_6  5.0927659423164739e-02
    j_12_2    ccon_12_7  1.7315449873521439e-02
    j_12_2    ccon_12_8  2.6073787476364480e-02
    j_12_3    ccon_12_1  -2.7153279782225020e-01
    j_12_3    ccon_12_2  -2.9175691332419490e-01
    j_12_3    ccon_12_3  -3.1092878046628397e-01
    j_12_3    ccon_12_4  -3.8743864568839215e-01
    j_12_3    ccon_12_5  -3.4259133013444637e-01
    j_12_3    ccon_12_6  -4.2920810992309300e-01
    j_12_3    ccon_12_7  -3.5531110337172145e-01
    j_12_3    ccon_12_8  -4.4979142195173116e-01
    j_12_4    ccon_12_1  2.7701525933871356e-02
    j_12_4    ccon_12_2  1.0164442794637374e-02
    j_12_4    ccon_12_3  -2.1166262830332578e-03
    j_12_4    ccon_12_4  3.9389036855648867e-02
    j_12_4    ccon_12_5  4.2672510362526436e-02
    j_12_4    ccon_12_6  6.6566746213198955e-02
    j_12_4    ccon_12_7  1.0332566398658967e-02
    j_12_4    ccon_12_8  2.0565617841709943e-02
    j_12_5    ccon_12_2  8.8650881296517096e-03
    j_12_5    ccon_12_3  2.4226287881991292e-02
    j_12_5    ccon_12_4  1.0407213047234931e-01
    j_12_5    ccon_12_5  6.2926303648331849e-02
    j_12_5    ccon_12_6  1.4858880212817568e-01
    j_12_5    ccon_12_7  6.8161958644814447e-02
    j_12_5    ccon_12_8  1.5835783978647652e-01
    j_12_6    ccon_12_3  -7.1936297665525940e-03
    j_12_6    ccon_12_4  2.4638518258606409e-02
    j_12_6    ccon_12_5  3.6499498561123188e-02
    j_12_6    ccon_12_6  4.7010974167699067e-02
    j_12_6    ccon_12_7  -1.5801664636765089e-03
    j_12_6    ccon_12_8  -7.6115374122112302e-03
    j_13_0    ccon_13_0  -4.2833890758956182e-02
    j_13_0    ccon_13_1  -1.0258900435431840e-06
    j_13_0    ccon_13_2  6.1217233976529276e-07
    j_13_0    ccon_13_3  -8.5869367458400937e-07
    j_13_0    ccon_13_4  -6.3434033538745919e-06
    j_13_0    ccon_13_5  -6.6943967381117923e-07
    j_13_0    ccon_13_6  1.3573246774163469e-06
    j_13_0    ccon_13_7  3.0906772293674706e-06
    j_13_0    ccon_13_8  -9.9354516796070796e-08
    j_13_1    ccon_13_0  -2.7222622094633558e-01
    j_13_1    ccon_13_1  -4.5115464956332690e-01
    j_13_1    ccon_13_2  -4.6194683728021896e-01
    j_13_1    ccon_13_3  -4.7977786680924994e-01
    j_13_1    ccon_13_4  -5.6117691825748206e-01
    j_13_1    ccon_13_5  -5.1691461016340190e-01
    j_13_1    ccon_13_6  -6.2095550876475103e-01
    j_13_1    ccon_13_7  -5.2547984985708485e-01
    j_13_1    ccon_13_8  -6.2109455694485305e-01
    j_13_2    ccon_13_0  6.4854246464286572e-02
    j_13_2    ccon_13_1  1.2007943240610145e-02
    j_13_2    ccon_13_2  3.2948195076936532e-03
    j_13_2    ccon_13_3  -3.3894843629382367e-03
    j_13_2    ccon_13_4  1.2008739373097545e-02
    j_13_2    ccon_13_5  1.5235778766384992e-02
    j_13_2    ccon_13_6  2.1794855705922138e-03
    j_13_2    ccon_13_7  5.0262582091794097e-04
    j_13_2    ccon_13_8  8.3777120803090626e-04
    j_13_3    ccon_13_1  -2.9494323943826756e-01
    j_13_3    ccon_13_2  -3.0615904676795996e-01
    j_13_3    ccon_13_3  -3.2431673800462180e-01
    j_13_3    ccon_13_4  -4.0493640564163386e-01
    j_13_3    ccon_13_5  -3.6053192115402444e-01
    j_13_3    ccon_13_6  -4.6518688494113419e-01
    j_13_3    ccon_13_7  -3.6981777160418472e-01
    j_13_3    ccon_13_8  -4.6539444604210878e-01
    j_13_4    ccon_13_1  3.4830929071371620e-02
    j_13_4    ccon_13_2  1.4206978498750300e-02
    j_13_4    ccon_13_3  -1.4215094556639335e-03
    j_13_4    ccon_13_4  3.7093947890118086e-02
    j_13_4    ccon_13_5  4.3911989171130122e-02
    j_13_4    ccon_13_6  1.4820656865020264e-02
    j_13_4    ccon_13_7  8.8406737191312652e-03
    j_13_4    ccon_13_8  1.1610718589404748e-02
    j_13_5    ccon_13_2  8.5770260073738443e-03
    j_13_5    ccon_13_3  2.4428604696441137e-02
    j_13_5    ccon_13_4  1.0600151621681049e-01
    j_13_5    ccon_13_5  6.3976880170642292e-02
    j_13_5    ccon_13_6  1.6166809215503813e-01
    j_13_5    ccon_13_7  6.9276472068033848e-02
    j_13_5    ccon_13_8  1.6153432430268963e-01
    j_13_6    ccon_13_3  -4.2220866120032691e-03
    j_13_6    ccon_13_4  2.8403031340479508e-02
    j_13_6    ccon_13_5  4.0388093107008860e-02
    j_13_6    ccon_13_6  -1.7755826485007340e-03
    j_13_6    ccon_13_7  1.9280681057158612e-03
    j_13_6    ccon_13_8  -5.2274827613236910e-03
    j_14_0    R7        1
    j_14_0    ccon_14_0  2.7337662917692684e-07
    j_14_0    ccon_14_1  -1.1483292479230107e-06
    j_14_1    R8        1
    j_14_1    ccon_14_0  -4.2917861762108989e-01
    j_14_1    ccon_14_1  -4.2949285972890289e-01
    j_14_2    R9        1
    j_14_2    ccon_14_0  3.2875239250079948e-03
    j_14_2    ccon_14_1  -3.3156042672153338e-03
    j_14_3    R10       1
    j_14_3    ccon_14_0  -3.1446820211357951e-01
    j_14_3    ccon_14_1  -3.1703970582361574e-01
    j_14_4    R11       1
    j_14_4    ccon_14_0  4.2929844232392898e-02
    j_14_4    ccon_14_1  2.0324329503070011e-02
    j_14_5    R12       1
    j_14_5    ccon_14_1  8.0505360743296922e-03
    j_14_6    R13       1
    coll_6_0  OBJ       20
    coll_6_0  ccon_6_0  -1
    coll_6_1  OBJ       20
    coll_6_1  ccon_6_1  -1
    coll_6_2  OBJ       20
    coll_6_2  ccon_6_2  -1
    coll_6_3  OBJ       20
    coll_6_3  ccon_6_3  -1
    coll_7_0  OBJ       20
    coll_7_0  ccon_7_0  -1
    coll_7_1  OBJ       20
    coll_7_1  ccon_7_1  -1
    coll_7_2  OBJ       20
    coll_7_2  ccon_7_2  -1
    coll_7_3  OBJ       20
    coll_7_3  ccon_7_3  -1
    coll_8_0  OBJ       20
    coll_8_0  ccon_8_0  -1
    coll_8_1  OBJ       20
    coll_8_1  ccon_8_1  -1
    coll_8_2  OBJ       20
    coll_8_2  ccon_8_2  -1
    coll_8_3  OBJ       20
    coll_8_3  ccon_8_3  -1
    coll_9_0  OBJ       20
    coll_9_0  ccon_9_0  -1
    coll_9_1  OBJ       20
    coll_9_1  ccon_9_1  -1
    coll_9_2  OBJ       20
    coll_9_2  ccon_9_2  -1
    coll_9_3  OBJ       20
    coll_9_3  ccon_9_3  -1
    coll_9_4  OBJ       20
    coll_9_4  ccon_9_4  -1
    coll_9_5  OBJ       20
    coll_9_5  ccon_9_5  -1
    coll_9_6  OBJ       20
    coll_9_6  ccon_9_6  -1
    coll_10_0  OBJ       20
    coll_10_0  ccon_10_0  -1
    coll_10_1  OBJ       20
    coll_10_1  ccon_10_1  -1
    coll_10_2  OBJ       20
    coll_10_2  ccon_10_2  -1
    coll_10_3  OBJ       20
    coll_10_3  ccon_10_3  -1
    coll_10_4  OBJ       20
    coll_10_4  ccon_10_4  -1
    coll_10_5  OBJ       20
    coll_10_5  ccon_10_5  -1
    coll_10_6  OBJ       20
    coll_10_6  ccon_10_6  -1
    coll_10_7  OBJ       20
    coll_10_7  ccon_10_7  -1
    coll_10_8  OBJ       20
    coll_10_8  ccon_10_8  -1
    coll_10_9  OBJ       20
    coll_10_9  ccon_10_9  -1
    coll_11_0  OBJ       20
    coll_11_0  ccon_11_0  -1
    coll_11_1  OBJ       20
    coll_11_1  ccon_11_1  -1
    coll_11_2  OBJ       20
    coll_11_2  ccon_11_2  -1
    coll_11_3  OBJ       20
    coll_11_3  ccon_11_3  -1
    coll_11_4  OBJ       20
    coll_11_4  ccon_11_4  -1
    coll_11_5  OBJ       20
    coll_11_5  ccon_11_5  -1
    coll_11_6  OBJ       20
    coll_11_6  ccon_11_6  -1
    coll_11_7  OBJ       20
    coll_11_7  ccon_11_7  -1
    coll_11_8  OBJ       20
    coll_11_8  ccon_11_8  -1
    coll_11_9  OBJ       20
    coll_11_9  ccon_11_9  -1
    coll_11_10  OBJ       20
    coll_11_10  ccon_11_10  -1
    coll_12_0  OBJ       20
    coll_12_0  ccon_12_0  -1
    coll_12_1  OBJ       20
    coll_12_1  ccon_12_1  -1
    coll_12_2  OBJ       20
    coll_12_2  ccon_12_2  -1
    coll_12_3  OBJ       20
    coll_12_3  ccon_12_3  -1
    coll_12_4  OBJ       20
    coll_12_4  ccon_12_4  -1
    coll_12_5  OBJ       20
    coll_12_5  ccon_12_5  -1
    coll_12_6  OBJ       20
    coll_12_6  ccon_12_6  -1
    coll_12_7  OBJ       20
    coll_12_7  ccon_12_7  -1
    coll_12_8  OBJ       20
    coll_12_8  ccon_12_8  -1
    coll_13_0  OBJ       20
    coll_13_0  ccon_13_0  -1
    coll_13_1  OBJ       20
    coll_13_1  ccon_13_1  -1
    coll_13_2  OBJ       20
    coll_13_2  ccon_13_2  -1
    coll_13_3  OBJ       20
    coll_13_3  ccon_13_3  -1
    coll_13_4  OBJ       20
    coll_13_4  ccon_13_4  -1
    coll_13_5  OBJ       20
    coll_13_5  ccon_13_5  -1
    coll_13_6  OBJ       20
    coll_13_6  ccon_13_6  -1
    coll_13_7  OBJ       20
    coll_13_7  ccon_13_7  -1
    coll_13_8  OBJ       20
    coll_13_8  ccon_13_8  -1
    coll_14_0  OBJ       20
    coll_14_0  ccon_14_0  -1
    coll_14_1  OBJ       20
    coll_14_1  ccon_14_1  -1
RHS
    RHS1      R0        -1.832
    RHS1      R1        -0.332
    RHS1      R2        -1.011
    RHS1      R3        -1.437
    RHS1      R4        -1.1
    RHS1      R5        -2.106
    RHS1      R6        3.074
    RHS1      R7        0.062
    RHS1      R8        1.287
    RHS1      R9        0.1
    RHS1      R10       -1.554
    RHS1      R11       -3.011
    RHS1      R12       -0.268
    RHS1      R13       2.988
    RHS1      ccon_6_0  -3.5546833146790069e-01
    RHS1      ccon_6_1  -2.5440779162638094e-01
    RHS1      ccon_6_2  -2.1561281012797104e-01
    RHS1      ccon_6_3  1.2058060966417132e-01
    RHS1      ccon_7_0  -3.7346245647094323e-01
    RHS1      ccon_7_1  -2.7165690391471908e-01
    RHS1      ccon_7_2  -1.7613531503158963e-01
    RHS1      ccon_7_3  2.2594687925859645e-02
    RHS1      ccon_8_0  -4.1913850152272158e-01
    RHS1      ccon_8_1  -2.6462393019668040e-01
    RHS1      ccon_8_2  -3.1775034603072128e-01
    RHS1      ccon_8_3  1.7129964408971646e-02
    RHS1      ccon_9_0  -3.6797098628805436e-01
    RHS1      ccon_9_1  -2.5077813059266263e-01
    RHS1      ccon_9_2  -2.8881134653989249e-01
    RHS1      ccon_9_3  1.0086023045095496e-02
    RHS1      ccon_9_4  7.5215855991131841e-02
    RHS1      ccon_9_5  2.3331367856399665e-01
    RHS1      ccon_9_6  2.5368632475970654e-01
    RHS1      ccon_10_0  -3.0736641995917768e-01
    RHS1      ccon_10_1  -2.1709240855961007e-01
    RHS1      ccon_10_2  -2.0185049405305339e-01
    RHS1      ccon_10_3  3.1593841041653234e-02
    RHS1      ccon_10_4  7.6673937757799307e-02
    RHS1      ccon_10_5  1.7062070599720705e-01
    RHS1      ccon_10_6  1.0765005280228629e-01
    RHS1      ccon_10_7  1.8909177568923263e-01
    RHS1      ccon_10_8  1.8857706374975747e-01
    RHS1      ccon_10_9  2.2267162973072166e-01
    RHS1      ccon_11_0  -2.9516319715409406e-01
    RHS1      ccon_11_1  -1.7836264751276598e-01
    RHS1      ccon_11_2  -1.6855033677354550e-01
    RHS1      ccon_11_3  -2.5806928740150581e-01
    RHS1      ccon_11_4  -1.6834939104598282e-02
    RHS1      ccon_11_5  2.9692984909054823e-02
    RHS1      ccon_11_6  1.0600701661922106e-01
    RHS1      ccon_11_7  5.3993362043232643e-02
    RHS1      ccon_11_8  1.2270889378013221e-01
    RHS1      ccon_11_9  7.1106153744208159e-02
    RHS1      ccon_11_10  1.5077094481263076e-01
    RHS1      ccon_12_0  -2.8886548114672089e-01
    RHS1      ccon_12_1  -2.2176636607234612e-01
    RHS1      ccon_12_2  -1.6428830442304312e-01
    RHS1      ccon_12_3  -1.2575757225242673e-01
    RHS1      ccon_12_4  -1.5805687813872377e-01
    RHS1      ccon_12_5  -1.3402195083287705e-01
    RHS1      ccon_12_6  -1.5252510712806194e-01
    RHS1      ccon_12_7  -1.5085637062563811e-01
    RHS1      ccon_12_8  -1.8241371273333648e-01
    RHS1      ccon_13_0  -2.8512819462237526e-01
    RHS1      ccon_13_1  -1.8827144937412665e-01
    RHS1      ccon_13_2  -1.2428580738715722e-01
    RHS1      ccon_13_3  -6.6973996307522335e-02
    RHS1      ccon_13_4  -9.0982541414528398e-02
    RHS1      ccon_13_5  -7.6262225836093392e-02
    RHS1      ccon_13_6  -9.9843381767645165e-02
    RHS1      ccon_13_7  -8.5269918934730959e-02
    RHS1      ccon_13_8  -1.0038891482703156e-01
    RHS1      ccon_14_0  -1.5528074542438985e-01
    RHS1      ccon_14_1  -8.5692616078611950e-02
BOUNDS
 LO BND1      j_0_0     -2.032
 UP BND1      j_0_0     -1.6320000000000001e+00
 LO BND1      j_0_1     -5.2360052092755083e-01
 UP BND1      j_0_1     -0.132
 LO BND1      j_0_2     -1.2109999999999999e+00
 UP BND1      j_0_2     -8.1099999999999994e-01
 LO BND1      j_0_3     -1.637
 UP BND1      j_0_3     -1.237
 LO BND1      j_0_4     -1.3
 UP BND1      j_0_4     -9.0000000000000013e-01
 LO BND1      j_0_5     -2.1800035022035171e+00
 UP BND1      j_0_5     -1.906
 LO BND1      j_0_6     2.8739999999999997e+00
 UP BND1      j_0_6     3.274
 LO BND1      j_1_0     -1.8967142857142858e+00
 UP BND1      j_1_0     -1.4967142857142859e+00
 LO BND1      j_1_1     -4.1635714285714293e-01
 UP BND1      j_1_1     -1.6357142857142903e-02
 LO BND1      j_1_2     -1.1316428571428572e+00
 UP BND1      j_1_2     -7.3164285714285704e-01
 LO BND1      j_1_3     -1.6453571428571430e+00
 UP BND1      j_1_3     -1.2453571428571431e+00
 LO BND1      j_1_4     -1.4365
 UP BND1      j_1_4     -1.0365000000000002e+00
 LO BND1      j_1_5     -2.1747142857142858e+00
 UP BND1      j_1_5     -1.7747142857142857e+00
 LO BND1      j_1_6     2.8678571428571429e+00
 UP BND1      j_1_6     3.2678571428571432e+00
 LO BND1      j_2_0     -1.7614285714285716e+00
 UP BND1      j_2_0     -1.3614285714285717e+00
 LO BND1      j_2_1     -3.0071428571428577e-01
 UP BND1      j_2_1     9.9285714285714255e-02
 LO BND1      j_2_2     -1.0522857142857143e+00
 UP BND1      j_2_2     -6.5228571428571436e-01
 LO BND1      j_2_3     -1.6537142857142857e+00
 UP BND1      j_2_3     -1.2537142857142858e+00
 LO BND1      j_2_4     -1.5730000000000002e+00
 UP BND1      j_2_4     -1.1730000000000003e+00
 LO BND1      j_2_5     -2.0434285714285716e+00
 UP BND1      j_2_5     -1.6434285714285715e+00
 LO BND1      j_2_6     2.8617142857142852e+00
 UP BND1      j_2_6     3.2617142857142856e+00
 LO BND1      j_3_0     -1.6261428571428571e+00
 UP BND1      j_3_0     -1.2261428571428572e+00
 LO BND1      j_3_1     -1.8507142857142861e-01
 UP BND1      j_3_1     2.1492857142857141e-01
 LO BND1      j_3_2     -9.7292857142857136e-01
 UP BND1      j_3_2     -5.7292857142857123e-01
 LO BND1      j_3_3     -1.6620714285714284e+00
 UP BND1      j_3_3     -1.2620714285714285e+00
 LO BND1      j_3_4     -1.7095
 UP BND1      j_3_4     -1.3095
 LO BND1      j_3_5     -1.9121428571428569e+00
 UP BND1      j_3_5     -1.5121428571428570e+00
 LO BND1      j_3_6     2.8555714285714280e+00
 UP BND1      j_3_6     3.2555714285714283e+00
 LO BND1      j_4_0     -1.4908571428571429e+00
 UP BND1      j_4_0     -1.0908571428571430e+00
 LO BND1      j_4_1     -6.9428571428571506e-02
 UP BND1      j_4_1     3.3057142857142852e-01
 LO BND1      j_4_2     -8.9357142857142846e-01
 UP BND1      j_4_2     -4.9357142857142849e-01
 LO BND1      j_4_3     -1.6704285714285714e+00
 UP BND1      j_4_3     -1.2704285714285715e+00
 LO BND1      j_4_4     -1.846
 UP BND1      j_4_4     -1.4460000000000002e+00
 LO BND1      j_4_5     -1.7808571428571427e+00
 UP BND1      j_4_5     -1.3808571428571428e+00
 LO BND1      j_4_6     2.8494285714285712e+00
 UP BND1      j_4_6     3.2494285714285716e+00
 LO BND1      j_5_0     -1.3555714285714286e+00
 UP BND1      j_5_0     -9.5557142857142874e-01
 LO BND1      j_5_1     4.6214285714285597e-02
 UP BND1      j_5_1     4.4621428571428562e-01
 LO BND1      j_5_2     -8.1421428571428578e-01
 UP BND1      j_5_2     -4.1421428571428570e-01
 LO BND1      j_5_3     -1.6787857142857143e+00
 UP BND1      j_5_3     -1.2787857142857144e+00
 LO BND1      j_5_4     -1.9825
 UP BND1      j_5_4     -1.5825
 LO BND1      j_5_5     -1.6495714285714285e+00
 UP BND1      j_5_5     -1.2495714285714286e+00
 LO BND1      j_5_6     2.8432857142857140e+00
 UP BND1      j_5_6     3.2432857142857143e+00
 LO BND1      j_6_0     -1.2202857142857144e+00
 UP BND1      j_6_0     -8.2028571428571451e-01
 LO BND1      j_6_1     1.6185714285714276e-01
 UP BND1      j_6_1     5.6185714285714283e-01
 LO BND1      j_6_2     -7.3485714285714288e-01
 UP BND1      j_6_2     -3.3485714285714280e-01
 LO BND1      j_6_3     -1.6871428571428571e+00
 UP BND1      j_6_3     -1.2871428571428571e+00
 LO BND1      j_6_4     -2.119
 UP BND1      j_6_4     -1.719
 LO BND1      j_6_5     -1.5182857142857140e+00
 UP BND1      j_6_5     -1.1182857142857141e+00
 LO BND1      j_6_6     2.8371428571428567e+00
 UP BND1      j_6_6     3.2371428571428571e+00
 LO BND1      j_7_0     -1.085
 UP BND1      j_7_0     -0.685
 LO BND1      j_7_1     2.7749999999999991e-01
 UP BND1      j_7_1     0.6775
 LO BND1      j_7_2     -0.6555
 UP BND1      j_7_2     -2.5549999999999995e-01
 LO BND1      j_7_3     -1.6955
 UP BND1      j_7_3     -1.2955
 LO BND1      j_7_4     -2.2555000000000005e+00
 UP BND1      j_7_4     -1.8555000000000004e+00
 LO BND1      j_7_5     -1.3869999999999998e+00
 UP BND1      j_7_5     -9.8699999999999988e-01
 LO BND1      j_7_6     2.8309999999999995e+00
 UP BND1      j_7_6     3.231
 LO BND1      j_8_0     -9.4971428571428573e-01
 UP BND1      j_8_0     -5.4971428571428582e-01
 LO BND1      j_8_1     3.9314285714285696e-01
 UP BND1      j_8_1     7.9314285714285693e-01
 LO BND1      j_8_2     -5.7614285714285707e-01
 UP BND1      j_8_2     -1.7614285714285710e-01
 LO BND1      j_8_3     -1.7038571428571430e+00
 UP BND1      j_8_3     -1.3038571428571430e+00
 LO BND1      j_8_4     -2.3920000000000003e+00
 UP BND1      j_8_4     -1.9920000000000002e+00
 LO BND1      j_8_5     -1.2557142857142856e+00
 UP BND1      j_8_5     -8.5571428571428565e-01
 LO BND1      j_8_6     2.8248571428571427e+00
 UP BND1      j_8_6     3.2248571428571431e+00
 LO BND1      j_9_0     -8.1442857142857172e-01
 UP BND1      j_9_0     -4.1442857142857165e-01
 LO BND1      j_9_1     5.0878571428571417e-01
 UP BND1      j_9_1     9.0878571428571409e-01
 LO BND1      j_9_2     -4.9678571428571433e-01
 UP BND1      j_9_2     -9.6785714285714308e-02
 LO BND1      j_9_3     -1.7122142857142857e+00
 UP BND1      j_9_3     -1.3122142857142858e+00
 LO BND1      j_9_4     -2.5285
 UP BND1      j_9_4     -2.1285
 LO BND1      j_9_5     -1.1244285714285716e+00
 UP BND1      j_9_5     -7.2442857142857142e-01
 LO BND1      j_9_6     2.8187142857142855e+00
 UP BND1      j_9_6     3.2187142857142859e+00
 LO BND1      j_10_0    -6.7914285714285727e-01
 UP BND1      j_10_0    -2.7914285714285730e-01
 LO BND1      j_10_1    6.2442857142857133e-01
 UP BND1      j_10_1    1.0244285714285712e+00
 LO BND1      j_10_2    -4.1742857142857148e-01
 UP BND1      j_10_2    -1.7428571428571488e-02
 LO BND1      j_10_3    -1.7205714285714284e+00
 UP BND1      j_10_3    -1.3205714285714285e+00
 LO BND1      j_10_4    -2.665
 UP BND1      j_10_4    -2.2649999999999997e+00
 LO BND1      j_10_5    -9.9314285714285733e-01
 UP BND1      j_10_5    -5.9314285714285719e-01
 LO BND1      j_10_6    2.8125714285714283e+00
 UP BND1      j_10_6    3.2125714285714286e+00
 LO BND1      j_11_0    -5.4385714285714293e-01
 UP BND1      j_11_0    -1.4385714285714291e-01
 LO BND1      j_11_1    7.4007142857142849e-01
 UP BND1      j_11_1    1.1400714285714284e+00
 LO BND1      j_11_2    -3.3807142857142858e-01
 UP BND1      j_11_2    6.1928571428571444e-02
 LO BND1      j_11_3    -1.7289285714285716e+00
 UP BND1      j_11_3    -1.3289285714285717e+00
 LO BND1      j_11_4    -2.8015000000000003e+00
 UP BND1      j_11_4    -2.4015
 LO BND1      j_11_5    -8.6185714285714288e-01
 UP BND1      j_11_5    -4.6185714285714291e-01
 LO BND1      j_11_6    2.8064285714285715e+00
 UP BND1      j_11_6    3.2064285714285718e+00
 LO BND1      j_12_0    -4.0857142857142870e-01
 UP BND1      j_12_0    -8.5714285714286464e-03
 LO BND1      j_12_1    8.5571428571428565e-01
 UP BND1      j_12_1    1.2557142857142856e+00
 LO BND1      j_12_2    -2.5871428571428579e-01
 UP BND1      j_12_2    1.4128571428571426e-01
 LO BND1      j_12_3    -1.7372857142857143e+00
 UP BND1      j_12_3    -1.3372857142857144e+00
 LO BND1      j_12_4    -2.938
 UP BND1      j_12_4    -2.538
 LO BND1      j_12_5    -7.3057142857142865e-01
 UP BND1      j_12_5    -3.3057142857142868e-01
 LO BND1      j_12_6    2.8002857142857138e+00
 UP BND1      j_12_6    3.2002857142857142e+00
 LO BND1      j_13_0    -2.7328571428571446e-01
 UP BND1      j_13_0    1.2671428571428556e-01
 LO BND1      j_13_1    9.7135714285714259e-01
 UP BND1      j_13_1    1.3713571428571425e+00
 LO BND1      j_13_2    -1.7935714285714294e-01
 UP BND1      j_13_2    2.2064285714285709e-01
 LO BND1      j_13_3    -1.7456428571428571e+00
 UP BND1      j_13_3    -1.3456428571428571e+00
 LO BND1      j_13_4    -3.0745
 UP BND1      j_13_4    -2.6744999999999997e+00
 LO BND1      j_13_5    -5.9928571428571442e-01
 UP BND1      j_13_5    -1.9928571428571445e-01
 LO BND1      j_13_6    2.7941428571428570e+00
 UP BND1      j_13_6    3.1941428571428574e+00
 LO BND1      j_14_0    -0.138
 UP BND1      j_14_0    0.262
 LO BND1      j_14_1    1.087
 UP BND1      j_14_1    1.3963000535097554e+00
 LO BND1      j_14_2    -0.1
 UP BND1      j_14_2    3.0000000000000004e-01
 LO BND1      j_14_3    -1.754
 UP BND1      j_14_3    -1.354
 LO BND1      j_14_4    -3.2110000000000003e+00
 UP BND1      j_14_4    -2.811
 LO BND1      j_14_5    -0.468
 UP BND1      j_14_5    -0.068
 LO BND1      j_14_6    2.788
 UP BND1      j_14_6    3.188
QUADOBJ
    j_0_0     j_1_0     -3
    j_0_0     j_0_0     3
    j_0_1     j_1_1     -3
    j_0_1     j_0_1     3
    j_0_2     j_1_2     -3
    j_0_2     j_0_2     3
    j_0_3     j_1_3     -3
    j_0_3     j_0_3     3
    j_0_4     j_1_4     -3
    j_0_4     j_0_4     3
    j_0_5     j_1_5     -3
    j_0_5     j_0_5     3
    j_0_6     j_1_6     -3
    j_0_6     j_0_6     3
    j_1_0     j_1_0     6
    j_1_0     j_2_0     -3
    j_1_1     j_1_1     6
    j_1_1     j_2_1     -3
    j_1_2     j_1_2     6
    j_1_2     j_2_2     -3
    j_1_3     j_1_3     6
    j_1_3     j_2_3     -3
    j_1_4     j_1_4     6
    j_1_4     j_2_4     -3
    j_1_5     j_1_5     6
    j_1_5     j_2_5     -3
    j_1_6     j_1_6     6
    j_1_6     j_2_6     -3
    j_2_0     j_2_0     6
    j_2_0     j_3_0     -3
    j_2_1     j_2_1     6
    j_2_1     j_3_1     -3
    j_2_2     j_2_2     6
    j_2_2     j_3_2     -3
    j_2_3     j_2_3     6
    j_2_3     j_3_3     -3
    j_2_4     j_2_4     6
    j_2_4     j_3_4     -3
    j_2_5     j_2_5     6
    j_2_5     j_3_5     -3
    j_2_6     j_2_6     6
    j_2_6     j_3_6     -3
    j_3_0     j_3_0     6
    j_3_0     j_4_0     -3
    j_3_1     j_3_1     6
    j_3_1     j_4_1     -3
    j_3_2     j_3_2     6
    j_3_2     j_4_2     -3
    j_3_3     j_3_3     6
    j_3_3     j_4_3     -3
    j_3_4     j_3_4     6
    j_3_4     j_4_4     -3
    j_3_5     j_3_5     6
    j_3_5     j_4_5     -3
    j_3_6     j_3_6     6
    j_3_6     j_4_6     -3
    j_4_0     j_4_0     6
    j_4_0     j_5_0     -3
    j_4_1     j_4_1     6
    j_4_1     j_5_1     -3
    j_4_2     j_4_2     6
    j_4_2     j_5_2     -3
    j_4_3     j_4_3     6
    j_4_3     j_5_3     -3
    j_4_4     j_4_4     6
    j_4_4     j_5_4     -3
    j_4_5     j_4_5     6
    j_4_5     j_5_5     -3
    j_4_6     j_4_6     6
    j_4_6     j_5_6     -3
    j_5_0     j_5_0     6
    j_5_0     j_6_0     -3
    j_5_1     j_5_1     6
    j_5_1     j_6_1     -3
    j_5_2     j_5_2     6
    j_5_2     j_6_2     -3
    j_5_3     j_5_3     6
    j_5_3     j_6_3     -3
    j_5_4     j_5_4     6
    j_5_4     j_6_4     -3
    j_5_5     j_5_5     6
    j_5_5     j_6_5     -3
    j_5_6     j_5_6     6
    j_5_6     j_6_6     -3
    j_6_0     j_6_0     6
    j_6_0     j_7_0     -3
    j_6_1     j_6_1     6
    j_6_1     j_7_1     -3
    j_6_2     j_6_2     6
    j_6_2     j_7_2     -3
    j_6_3     j_6_3     6
    j_6_3     j_7_3     -3
    j_6_4     j_6_4     6
    j_6_4     j_7_4     -3
    j_6_5     j_6_5     6
    j_6_5     j_7_5     -3
    j_6_6     j_6_6     6
    j_6_6     j_7_6     -3
    j_7_0     j_7_0     6
    j_7_0     j_8_0     -3
    j_7_1     j_7_1     6
    j_7_1     j_8_1     -3
    j_7_2     j_7_2     6
    j_7_2     j_8_2     -3
    j_7_3     j_7_3     6
    j_7_3     j_8_3     -3
    j_7_4     j_7_4     6
    j_7_4     j_8_4     -3
    j_7_5     j_7_5     6
    j_7_5     j_8_5     -3
    j_7_6     j_7_6     6
    j_7_6     j_8_6     -3
    j_8_0     j_8_0     6
    j_8_0     j_9_0     -3
    j_8_1     j_8_1     6
    j_8_1     j_9_1     -3
    j_8_2     j_8_2     6
    j_8_2     j_9_2     -3
    j_8_3     j_8_3     6
    j_8_3     j_9_3     -3
    j_8_4     j_8_4     6
    j_8_4     j_9_4     -3
    j_8_5     j_8_5     6
    j_8_5     j_9_5     -3
    j_8_6     j_8_6     6
    j_8_6     j_9_6     -3
    j_9_0     j_9_0     6
    j_9_0     j_10_0    -3
    j_9_1     j_9_1     6
    j_9_1     j_10_1    -3
    j_9_2     j_9_2     6
    j_9_2     j_10_2    -3
    j_9_3     j_9_3     6
    j_9_3     j_10_3    -3
    j_9_4     j_9_4     6
    j_9_4     j_10_4    -3
    j_9_5     j_9_5     6
    j_9_5     j_10_5    -3
    j_9_6     j_9_6     6
    j_9_6     j_10_6    -3
    j_10_0    j_10_0    6
    j_10_0    j_11_0    -3
    j_10_1    j_10_1    6
    j_10_1    j_11_1    -3
    j_10_2    j_10_2    6
    j_10_2    j_11_2    -3
    j_10_3    j_10_3    6
    j_10_3    j_11_3    -3
    j_10_4    j_10_4    6
    j_10_4    j_11_4    -3
    j_10_5    j_10_5    6
    j_10_5    j_11_5    -3
    j_10_6    j_10_6    6
    j_10_6    j_11_6    -3
    j_11_0    j_11_0    6
    j_11_0    j_12_0    -3
    j_11_1    j_11_1    6
    j_11_1    j_12_1    -3
    j_11_2    j_11_2    6
    j_11_2    j_12_2    -3
    j_11_3    j_11_3    6
    j_11_3    j_12_3    -3
    j_11_4    j_11_4    6
    j_11_4    j_12_4    -3
    j_11_5    j_11_5    6
    j_11_5    j_12_5    -3
    j_11_6    j_11_6    6
    j_11_6    j_12_6    -3
    j_12_0    j_12_0    6
    j_12_0    j_13_0    -3
    j_12_1    j_12_1    6
    j_12_1    j_13_1    -3
    j_12_2    j_12_2    6
    j_12_2    j_13_2    -3
    j_12_3    j_12_3    6
    j_12_3    j_13_3    -3
    j_12_4    j_12_4    6
    j_12_4    j_13_4    -3
    j_12_5    j_12_5    6
    j_12_5    j_13_5    -3
    j_12_6    j_12_6    6
    j_12_6    j_13_6    -3
    j_13_0    j_13_0    6
    j_13_0    j_14_0    -3
    j_13_1    j_13_1    6
    j_13_1    j_14_1    -3
    j_13_2    j_13_2    6
    j_13_2    j_14_2    -3
    j_13_3    j_13_3    6
    j_13_3    j_14_3    -3
    j_13_4    j_13_4    6
    j_13_4    j_14_4    -3
    j_13_5    j_13_5    6
    j_13_5    j_14_5    -3
    j_13_6    j_13_6    6
    j_13_6    j_14_6    -3
    j_14_0    j_14_0    3
    j_14_1    j_14_1    3
    j_14_2    j_14_2    3
    j_14_3    j_14_3    3
    j_14_4    j_14_4    3
    j_14_5    j_14_5    3
    j_14_6    j_14_6    3
ENDATA
